db/data/110281779520284318002110676812324433.z3.out
-------------------
2500.218264506
